NAME : Game 1039
COMMENT : Dots
TYPE : TSP
DIMENSION : 21
EDGE_WEIGHT_TYPE : EUC_2D
NODE_COORD_SECTION
1 15 46
2 16 62
3 18 26
4 18 83
5 25 54
6 31 83
7 34 13
8 44 78
9 45 89
10 49 19
11 49 37
12 56 51
13 59 79
14 62 16
15 75 30
16 76 70
17 77 56
18 83 40
19 83 85
20 89 65
21 90 13
EOF